p cnf 73 37
2 -67 0
2 39 -63 64 0
-2 65 66 67 68 69 70 0
2 -70 0
2 -69 0
25 53 -64 71 0
63 -72 0
11 25 39 53 73 0
39 53 -63 72 0
11 39 64 69 0
39 -63 64 68 0
11 25 63 67 0
53 -63 -64 70 0
25 63 -64 66 0
-25 -66 0
-11 -69 0
-11 -67 0
-11 -73 0
-53 -72 0
-39 -72 0
64 -71 0
-53 -71 0
-25 -71 0
64 -70 0
-53 -70 0
-39 -69 0
-39 -68 0
-63 -67 0
-25 -67 0
-53 -73 0
-39 -73 0
-25 -73 0
63 -70 0
-64 -69 0
-64 -68 0
63 -68 0
2 -66 0
